(set-logic QF_S)
(declare-fun var0 () String)
(declare-fun var1 () String)
(declare-fun var2 () Int)
(declare-fun var3 () Int)
(declare-fun var4 () String)
(declare-fun var5 () Int)
(declare-fun var6 () Int)
(declare-fun var7 () String)
(assert (str.prefixof var0 var1))
(assert (>= var2 var3))
(assert (str.suffixof (str.substr var4 var5 var6) (str.at (str.replace var7 var7 var7) (str.to.int var4))))
(assert (< 28 var3))
(check-sat)